p cnf 430 1488
-191 -21 0
-191 -108 0
-191 12 0
-191 -71 0
-191 -95 0
191 21 108 -12 71 95 0
-192 -170 0
-192 51 0
-192 188 0
-192 -120 0
-192 -184 0
192 170 -51 -188 120 184 0
-193 37 0
-193 -172 0
-193 72 0
-193 -184 0
-193 -162 0
193 -37 172 -72 184 162 0
-194 -138 0
-194 -90 0
-194 -164 0
-194 9 0
-194 104 0
194 138 90 164 -9 -104 0
-195 172 0
-195 170 0
-195 -134 0
-195 -94 0
-195 2 0
195 -172 -170 134 94 -2 0
191 192 193 194 195 0
-196 -86 0
-196 -4 0
-196 -171 0
-196 36 0
-196 -40 0
196 86 4 171 -36 40 0
-197 56 0
-197 87 0
-197 -8 0
-197 -189 0
-197 -62 0
197 -56 -87 8 189 62 0
-198 147 0
-198 -154 0
-198 -21 0
-198 -175 0
-198 115 0
198 -147 154 21 175 -115 0
-199 76 0
-199 81 0
-199 -72 0
-199 -163 0
-199 29 0
199 -76 -81 72 163 -29 0
-200 158 0
-200 124 0
-200 41 0
-200 103 0
-200 46 0
200 -158 -124 -41 -103 -46 0
196 197 198 199 200 0
-201 -8 0
-201 50 0
-201 -74 0
-201 -24 0
-201 -153 0
201 8 -50 74 24 153 0
-202 101 0
-202 45 0
-202 159 0
-202 -142 0
-202 86 0
202 -101 -45 -159 142 -86 0
-203 -162 0
-203 18 0
-203 -135 0
-203 81 0
-203 35 0
203 162 -18 135 -81 -35 0
-204 115 0
-204 -173 0
-204 -78 0
-204 -175 0
-204 170 0
204 -115 173 78 175 -170 0
-205 -87 0
-205 141 0
-205 -27 0
-205 139 0
-205 -150 0
205 87 -141 27 -139 150 0
201 202 203 204 205 0
-206 121 0
-206 -177 0
-206 137 0
-206 -17 0
-206 -75 0
206 -121 177 -137 17 75 0
-207 101 0
-207 -149 0
-207 171 0
-207 44 0
-207 137 0
207 -101 149 -171 -44 -137 0
-208 60 0
-208 -143 0
-208 100 0
-208 43 0
-208 -44 0
208 -60 143 -100 -43 44 0
-209 -64 0
-209 -104 0
-209 -160 0
-209 -43 0
-209 -29 0
209 64 104 160 43 29 0
-210 -96 0
-210 -135 0
-210 -68 0
-210 99 0
-210 181 0
210 96 135 68 -99 -181 0
206 207 208 209 210 0
-211 49 0
-211 -181 0
-211 -108 0
-211 -172 0
-211 53 0
211 -49 181 108 172 -53 0
-212 -25 0
-212 149 0
-212 171 0
-212 167 0
-212 -90 0
212 25 -149 -171 -167 90 0
-213 -155 0
-213 133 0
-213 -10 0
-213 101 0
-213 -26 0
213 155 -133 10 -101 26 0
-214 -182 0
-214 122 0
-214 -106 0
-214 -79 0
-214 -135 0
214 182 -122 106 79 135 0
-215 -52 0
-215 27 0
-215 97 0
-215 -121 0
-215 185 0
215 52 -27 -97 121 -185 0
211 212 213 214 215 0
-216 -166 0
-216 34 0
-216 106 0
-216 80 0
-216 -78 0
216 166 -34 -106 -80 78 0
-217 66 0
-217 172 0
-217 -75 0
-217 181 0
-217 -76 0
217 -66 -172 75 -181 76 0
-218 -32 0
-218 -81 0
-218 154 0
-218 99 0
-218 2 0
218 32 81 -154 -99 -2 0
-219 60 0
-219 105 0
-219 55 0
-219 184 0
-219 -108 0
219 -60 -105 -55 -184 108 0
-220 -138 0
-220 -68 0
-220 -20 0
-220 -113 0
-220 -162 0
220 138 68 20 113 162 0
216 217 218 219 220 0
-221 -99 0
-221 108 0
-221 136 0
-221 146 0
-221 177 0
221 99 -108 -136 -146 -177 0
-222 137 0
-222 -93 0
-222 -54 0
-222 46 0
-222 91 0
222 -137 93 54 -46 -91 0
-223 151 0
-223 66 0
-223 -27 0
-223 -122 0
-223 119 0
223 -151 -66 27 122 -119 0
-224 94 0
-224 -130 0
-224 -146 0
-224 138 0
-224 -167 0
224 -94 130 146 -138 167 0
-225 69 0
-225 143 0
-225 14 0
-225 -144 0
-225 36 0
225 -69 -143 -14 144 -36 0
221 222 223 224 225 0
-226 23 0
-226 -169 0
-226 -9 0
-226 26 0
-226 -116 0
226 -23 169 9 -26 116 0
-227 40 0
-227 7 0
-227 -158 0
-227 -177 0
-227 -25 0
227 -40 -7 158 177 25 0
-228 -39 0
-228 12 0
-228 -169 0
-228 59 0
-228 -8 0
228 39 -12 169 -59 8 0
-229 -46 0
-229 -95 0
-229 -146 0
-229 19 0
-229 24 0
229 46 95 146 -19 -24 0
-230 135 0
-230 19 0
-230 47 0
-230 -55 0
-230 48 0
230 -135 -19 -47 55 -48 0
226 227 228 229 230 0
-231 -147 0
-231 -24 0
-231 181 0
-231 -101 0
-231 -37 0
231 147 24 -181 101 37 0
-232 104 0
-232 189 0
-232 -167 0
-232 -84 0
-232 -111 0
232 -104 -189 167 84 111 0
-233 -2 0
-233 147 0
-233 -116 0
-233 180 0
-233 162 0
233 2 -147 116 -180 -162 0
-234 -164 0
-234 78 0
-234 14 0
-234 1 0
-234 -84 0
234 164 -78 -14 -1 84 0
-235 163 0
-235 6 0
-235 84 0
-235 -34 0
-235 101 0
235 -163 -6 -84 34 -101 0
231 232 233 234 235 0
-236 -28 0
-236 63 0
-236 85 0
-236 -59 0
-236 -146 0
236 28 -63 -85 59 146 0
-237 -67 0
-237 -187 0
-237 168 0
-237 143 0
-237 103 0
237 67 187 -168 -143 -103 0
-238 -75 0
-238 -120 0
-238 174 0
-238 -124 0
-238 31 0
238 75 120 -174 124 -31 0
-239 -77 0
-239 79 0
-239 -124 0
-239 78 0
-239 96 0
239 77 -79 124 -78 -96 0
-240 112 0
-240 -12 0
-240 153 0
-240 -107 0
-240 116 0
240 -112 12 -153 107 -116 0
236 237 238 239 240 0
-241 -113 0
-241 -72 0
-241 -56 0
-241 -11 0
-241 -129 0
241 113 72 56 11 129 0
-242 -76 0
-242 184 0
-242 56 0
-242 -172 0
-242 35 0
242 76 -184 -56 172 -35 0
-243 73 0
-243 114 0
-243 101 0
-243 113 0
-243 111 0
243 -73 -114 -101 -113 -111 0
-244 -190 0
-244 120 0
-244 44 0
-244 102 0
-244 68 0
244 190 -120 -44 -102 -68 0
-245 -50 0
-245 8 0
-245 -120 0
-245 -103 0
-245 177 0
245 50 -8 120 103 -177 0
241 242 243 244 245 0
-246 86 0
-246 3 0
-246 -125 0
-246 6 0
-246 176 0
246 -86 -3 125 -6 -176 0
-247 -166 0
-247 182 0
-247 -14 0
-247 -34 0
-247 185 0
247 166 -182 14 34 -185 0
-248 84 0
-248 49 0
-248 -53 0
-248 44 0
-248 187 0
248 -84 -49 53 -44 -187 0
-249 75 0
-249 -98 0
-249 -143 0
-249 -85 0
-249 138 0
249 -75 98 143 85 -138 0
-250 -174 0
-250 -175 0
-250 6 0
-250 77 0
-250 -16 0
250 174 175 -6 -77 16 0
246 247 248 249 250 0
-251 12 0
-251 187 0
-251 -119 0
-251 -53 0
-251 137 0
251 -12 -187 119 53 -137 0
-252 -79 0
-252 132 0
-252 -101 0
-252 114 0
-252 71 0
252 79 -132 101 -114 -71 0
-253 -54 0
-253 -74 0
-253 66 0
-253 7 0
-253 -59 0
253 54 74 -66 -7 59 0
-254 164 0
-254 -43 0
-254 -87 0
-254 -137 0
-254 141 0
254 -164 43 87 137 -141 0
-255 172 0
-255 136 0
-255 188 0
-255 21 0
-255 89 0
255 -172 -136 -188 -21 -89 0
251 252 253 254 255 0
-256 121 0
-256 151 0
-256 52 0
-256 -51 0
-256 64 0
256 -121 -151 -52 51 -64 0
-257 18 0
-257 188 0
-257 166 0
-257 -65 0
-257 99 0
257 -18 -188 -166 65 -99 0
-258 -118 0
-258 181 0
-258 -9 0
-258 -21 0
-258 -109 0
258 118 -181 9 21 109 0
-259 -53 0
-259 6 0
-259 -169 0
-259 -87 0
-259 17 0
259 53 -6 169 87 -17 0
-260 -66 0
-260 62 0
-260 -182 0
-260 173 0
-260 -29 0
260 66 -62 182 -173 29 0
256 257 258 259 260 0
-261 175 0
-261 32 0
-261 -119 0
-261 -21 0
-261 -153 0
261 -175 -32 119 21 153 0
-262 -142 0
-262 87 0
-262 -175 0
-262 -129 0
-262 27 0
262 142 -87 175 129 -27 0
-263 18 0
-263 1 0
-263 -188 0
-263 156 0
-263 93 0
263 -18 -1 188 -156 -93 0
-264 40 0
-264 174 0
-264 91 0
-264 -170 0
-264 96 0
264 -40 -174 -91 170 -96 0
-265 152 0
-265 -53 0
-265 -163 0
-265 12 0
-265 31 0
265 -152 53 163 -12 -31 0
261 262 263 264 265 0
-266 88 0
-266 -44 0
-266 -102 0
-266 160 0
-266 -138 0
266 -88 44 102 -160 138 0
-267 -178 0
-267 69 0
-267 -172 0
-267 -173 0
-267 164 0
267 178 -69 172 173 -164 0
-268 67 0
-268 165 0
-268 35 0
-268 -101 0
-268 -178 0
268 -67 -165 -35 101 178 0
-269 60 0
-269 46 0
-269 75 0
-269 110 0
-269 40 0
269 -60 -46 -75 -110 -40 0
-270 -22 0
-270 84 0
-270 -103 0
-270 61 0
-270 144 0
270 22 -84 103 -61 -144 0
266 267 268 269 270 0
-271 -153 0
-271 94 0
-271 52 0
-271 -38 0
-271 -75 0
271 153 -94 -52 38 75 0
-272 -178 0
-272 57 0
-272 -88 0
-272 -177 0
-272 147 0
272 178 -57 88 177 -147 0
-273 83 0
-273 -187 0
-273 12 0
-273 -183 0
-273 -94 0
273 -83 187 -12 183 94 0
-274 154 0
-274 -12 0
-274 37 0
-274 45 0
-274 -71 0
274 -154 12 -37 -45 71 0
-275 -182 0
-275 133 0
-275 150 0
-275 154 0
-275 -1 0
275 182 -133 -150 -154 1 0
271 272 273 274 275 0
-276 130 0
-276 66 0
-276 53 0
-276 2 0
-276 -171 0
276 -130 -66 -53 -2 171 0
-277 144 0
-277 -98 0
-277 175 0
-277 76 0
-277 135 0
277 -144 98 -175 -76 -135 0
-278 48 0
-278 -28 0
-278 -16 0
-278 166 0
-278 9 0
278 -48 28 16 -166 -9 0
-279 158 0
-279 -113 0
-279 55 0
-279 174 0
-279 44 0
279 -158 113 -55 -174 -44 0
-280 -12 0
-280 53 0
-280 40 0
-280 106 0
-280 181 0
280 12 -53 -40 -106 -181 0
276 277 278 279 280 0
-281 47 0
-281 -11 0
-281 175 0
-281 -96 0
-281 -144 0
281 -47 11 -175 96 144 0
-282 54 0
-282 65 0
-282 56 0
-282 -133 0
-282 164 0
282 -54 -65 -56 133 -164 0
-283 -36 0
-283 -187 0
-283 134 0
-283 -68 0
-283 54 0
283 36 187 -134 68 -54 0
-284 -69 0
-284 -22 0
-284 -145 0
-284 78 0
-284 152 0
284 69 22 145 -78 -152 0
-285 -147 0
-285 -69 0
-285 175 0
-285 -23 0
-285 -153 0
285 147 69 -175 23 153 0
281 282 283 284 285 0
-286 -63 0
-286 -92 0
-286 -17 0
-286 -180 0
-286 160 0
286 63 92 17 180 -160 0
-287 -169 0
-287 -96 0
-287 -114 0
-287 -48 0
-287 -145 0
287 169 96 114 48 145 0
-288 66 0
-288 -71 0
-288 160 0
-288 -57 0
-288 186 0
288 -66 71 -160 57 -186 0
-289 -54 0
-289 36 0
-289 59 0
-289 -45 0
-289 -166 0
289 54 -36 -59 45 166 0
-290 150 0
-290 -177 0
-290 -107 0
-290 -74 0
-290 -71 0
290 -150 177 107 74 71 0
286 287 288 289 290 0
-291 -136 0
-291 189 0
-291 -77 0
-291 -44 0
-291 -118 0
291 136 -189 77 44 118 0
-292 38 0
-292 23 0
-292 147 0
-292 12 0
-292 -161 0
292 -38 -23 -147 -12 161 0
-293 102 0
-293 -183 0
-293 177 0
-293 21 0
-293 -63 0
293 -102 183 -177 -21 63 0
-294 103 0
-294 -27 0
-294 190 0
-294 166 0
-294 -71 0
294 -103 27 -190 -166 71 0
-295 -65 0
-295 -165 0
-295 160 0
-295 98 0
-295 -153 0
295 65 165 -160 -98 153 0
291 292 293 294 295 0
-296 44 0
-296 -77 0
-296 -49 0
-296 -110 0
-296 25 0
296 -44 77 49 110 -25 0
-297 -135 0
-297 -154 0
-297 -185 0
-297 -65 0
-297 172 0
297 135 154 185 65 -172 0
-298 183 0
-298 2 0
-298 74 0
-298 94 0
-298 187 0
298 -183 -2 -74 -94 -187 0
-299 -94 0
-299 57 0
-299 -108 0
-299 -8 0
-299 83 0
299 94 -57 108 8 -83 0
-300 -22 0
-300 139 0
-300 -62 0
-300 12 0
-300 -27 0
300 22 -139 62 -12 27 0
296 297 298 299 300 0
-301 -27 0
-301 -2 0
-301 12 0
-301 169 0
-301 -58 0
301 27 2 -12 -169 58 0
-302 -54 0
-302 62 0
-302 139 0
-302 -123 0
-302 -124 0
302 54 -62 -139 123 124 0
-303 65 0
-303 184 0
-303 -27 0
-303 62 0
-303 30 0
303 -65 -184 27 -62 -30 0
-304 -189 0
-304 74 0
-304 117 0
-304 71 0
-304 -24 0
304 189 -74 -117 -71 24 0
-305 100 0
-305 66 0
-305 -182 0
-305 -95 0
-305 190 0
305 -100 -66 182 95 -190 0
301 302 303 304 305 0
-306 6 0
-306 -89 0
-306 -183 0
-306 -59 0
-306 -176 0
306 -6 89 183 59 176 0
-307 137 0
-307 24 0
-307 -151 0
-307 64 0
-307 -116 0
307 -137 -24 151 -64 116 0
-308 3 0
-308 -6 0
-308 -109 0
-308 -147 0
-308 180 0
308 -3 6 109 147 -180 0
-309 -63 0
-309 118 0
-309 -1 0
-309 32 0
-309 -70 0
309 63 -118 1 -32 70 0
-310 -20 0
-310 -84 0
-310 -54 0
-310 134 0
-310 153 0
310 20 84 54 -134 -153 0
306 307 308 309 310 0
-311 164 0
-311 179 0
-311 -142 0
-311 103 0
-311 -59 0
311 -164 -179 142 -103 59 0
-312 -74 0
-312 96 0
-312 -114 0
-312 38 0
-312 58 0
312 74 -96 114 -38 -58 0
-313 18 0
-313 -40 0
-313 78 0
-313 145 0
-313 -143 0
313 -18 40 -78 -145 143 0
-314 164 0
-314 -175 0
-314 -138 0
-314 130 0
-314 -70 0
314 -164 175 138 -130 70 0
-315 102 0
-315 56 0
-315 165 0
-315 -74 0
-315 139 0
315 -102 -56 -165 74 -139 0
311 312 313 314 315 0
-316 112 0
-316 -14 0
-316 -104 0
-316 124 0
-316 -176 0
316 -112 14 104 -124 176 0
-317 56 0
-317 -172 0
-317 92 0
-317 20 0
-317 146 0
317 -56 172 -92 -20 -146 0
-318 -128 0
-318 166 0
-318 -123 0
-318 114 0
-318 -89 0
318 128 -166 123 -114 89 0
-319 -163 0
-319 -18 0
-319 -106 0
-319 -24 0
-319 -10 0
319 163 18 106 24 10 0
-320 176 0
-320 -10 0
-320 69 0
-320 158 0
-320 -97 0
320 -176 10 -69 -158 97 0
316 317 318 319 320 0
-321 57 0
-321 -157 0
-321 -24 0
-321 -92 0
-321 -64 0
321 -57 157 24 92 64 0
-322 171 0
-322 -122 0
-322 31 0
-322 -28 0
-322 113 0
322 -171 122 -31 28 -113 0
-323 169 0
-323 174 0
-323 -123 0
-323 99 0
-323 186 0
323 -169 -174 123 -99 -186 0
-324 -184 0
-324 147 0
-324 -152 0
-324 143 0
-324 31 0
324 184 -147 152 -143 -31 0
-325 -157 0
-325 -164 0
-325 97 0
-325 88 0
-325 174 0
325 157 164 -97 -88 -174 0
321 322 323 324 325 0
-326 121 0
-326 168 0
-326 143 0
-326 83 0
-326 68 0
326 -121 -168 -143 -83 -68 0
-327 87 0
-327 70 0
-327 58 0
-327 -36 0
-327 169 0
327 -87 -70 -58 36 -169 0
-328 94 0
-328 183 0
-328 63 0
-328 -31 0
-328 95 0
328 -94 -183 -63 31 -95 0
-329 74 0
-329 -62 0
-329 58 0
-329 -31 0
-329 102 0
329 -74 62 -58 31 -102 0
-330 167 0
-330 87 0
-330 -6 0
-330 89 0
-330 61 0
330 -167 -87 6 -89 -61 0
326 327 328 329 330 0
-331 180 0
-331 -57 0
-331 56 0
-331 -162 0
-331 67 0
331 -180 57 -56 162 -67 0
-332 -153 0
-332 64 0
-332 -133 0
-332 56 0
-332 -83 0
332 153 -64 133 -56 83 0
-333 -58 0
-333 -164 0
-333 25 0
-333 -90 0
-333 -104 0
333 58 164 -25 90 104 0
-334 -18 0
-334 82 0
-334 -163 0
-334 52 0
-334 69 0
334 18 -82 163 -52 -69 0
-335 -132 0
-335 -101 0
-335 71 0
-335 -122 0
-335 105 0
335 132 101 -71 122 -105 0
331 332 333 334 335 0
-336 34 0
-336 -169 0
-336 115 0
-336 156 0
-336 71 0
336 -34 169 -115 -156 -71 0
-337 89 0
-337 4 0
-337 -118 0
-337 116 0
-337 -44 0
337 -89 -4 118 -116 44 0
-338 -29 0
-338 -31 0
-338 153 0
-338 -113 0
-338 -93 0
338 29 31 -153 113 93 0
-339 156 0
-339 172 0
-339 63 0
-339 -115 0
-339 53 0
339 -156 -172 -63 115 -53 0
-340 120 0
-340 -100 0
-340 44 0
-340 -35 0
-340 80 0
340 -120 100 -44 35 -80 0
336 337 338 339 340 0
-341 -86 0
-341 164 0
-341 128 0
-341 74 0
-341 68 0
341 86 -164 -128 -74 -68 0
-342 91 0
-342 143 0
-342 156 0
-342 -151 0
-342 -54 0
342 -91 -143 -156 151 54 0
-343 -7 0
-343 36 0
-343 121 0
-343 156 0
-343 -151 0
343 7 -36 -121 -156 151 0
-344 96 0
-344 -76 0
-344 -118 0
-344 -170 0
-344 -41 0
344 -96 76 118 170 41 0
-345 16 0
-345 82 0
-345 189 0
-345 -179 0
-345 -23 0
345 -16 -82 -189 179 23 0
341 342 343 344 345 0
-346 -10 0
-346 -19 0
-346 -13 0
-346 -30 0
-346 -148 0
346 10 19 13 30 148 0
-347 -20 0
-347 77 0
-347 42 0
-347 151 0
-347 98 0
347 20 -77 -42 -151 -98 0
-348 40 0
-348 -53 0
-348 44 0
-348 145 0
-348 -61 0
348 -40 53 -44 -145 61 0
-349 -37 0
-349 86 0
-349 150 0
-349 95 0
-349 -21 0
349 37 -86 -150 -95 21 0
-350 -112 0
-350 55 0
-350 140 0
-350 -146 0
-350 -144 0
350 112 -55 -140 146 144 0
346 347 348 349 350 0
-351 187 0
-351 54 0
-351 108 0
-351 20 0
-351 -7 0
351 -187 -54 -108 -20 7 0
-352 135 0
-352 26 0
-352 148 0
-352 -116 0
-352 50 0
352 -135 -26 -148 116 -50 0
-353 166 0
-353 85 0
-353 -94 0
-353 68 0
-353 -183 0
353 -166 -85 94 -68 183 0
-354 -146 0
-354 80 0
-354 76 0
-354 187 0
-354 -28 0
354 146 -80 -76 -187 28 0
-355 -156 0
-355 140 0
-355 40 0
-355 -96 0
-355 -94 0
355 156 -140 -40 96 94 0
351 352 353 354 355 0
-356 187 0
-356 -111 0
-356 -122 0
-356 -128 0
-356 -77 0
356 -187 111 122 128 77 0
-357 -61 0
-357 -43 0
-357 35 0
-357 151 0
-357 155 0
357 61 43 -35 -151 -155 0
-358 70 0
-358 -183 0
-358 153 0
-358 -77 0
-358 95 0
358 -70 183 -153 77 -95 0
-359 -134 0
-359 160 0
-359 45 0
-359 -128 0
-359 -71 0
359 134 -160 -45 128 71 0
-360 -16 0
-360 186 0
-360 187 0
-360 -103 0
-360 -21 0
360 16 -186 -187 103 21 0
356 357 358 359 360 0
-361 -40 0
-361 63 0
-361 85 0
-361 -37 0
-361 120 0
361 40 -63 -85 37 -120 0
-362 -178 0
-362 -152 0
-362 179 0
-362 22 0
-362 146 0
362 178 152 -179 -22 -146 0
-363 -17 0
-363 -92 0
-363 184 0
-363 -174 0
-363 27 0
363 17 92 -184 174 -27 0
-364 -187 0
-364 28 0
-364 -4 0
-364 -145 0
-364 117 0
364 187 -28 4 145 -117 0
-365 -55 0
-365 -81 0
-365 -93 0
-365 171 0
-365 -183 0
365 55 81 93 -171 183 0
361 362 363 364 365 0
-366 -17 0
-366 97 0
-366 153 0
-366 78 0
-366 151 0
366 17 -97 -153 -78 -151 0
-367 47 0
-367 -151 0
-367 -157 0
-367 -138 0
-367 -133 0
367 -47 151 157 138 133 0
-368 -74 0
-368 24 0
-368 -145 0
-368 170 0
-368 -112 0
368 74 -24 145 -170 112 0
-369 -98 0
-369 -81 0
-369 40 0
-369 154 0
-369 25 0
369 98 81 -40 -154 -25 0
-370 -113 0
-370 -176 0
-370 -73 0
-370 -145 0
-370 -158 0
370 113 176 73 145 158 0
366 367 368 369 370 0
-371 60 0
-371 87 0
-371 160 0
-371 121 0
-371 13 0
371 -60 -87 -160 -121 -13 0
-372 -58 0
-372 88 0
-372 -77 0
-372 -15 0
-372 -160 0
372 58 -88 77 15 160 0
-373 43 0
-373 64 0
-373 -89 0
-373 -71 0
-373 -173 0
373 -43 -64 89 71 173 0
-374 186 0
-374 71 0
-374 -131 0
-374 178 0
-374 -175 0
374 -186 -71 131 -178 175 0
-375 145 0
-375 110 0
-375 -49 0
-375 -46 0
-375 -122 0
375 -145 -110 49 46 122 0
371 372 373 374 375 0
-376 113 0
-376 -1 0
-376 108 0
-376 141 0
-376 121 0
376 -113 1 -108 -141 -121 0
-377 69 0
-377 93 0
-377 29 0
-377 2 0
-377 116 0
377 -69 -93 -29 -2 -116 0
-378 -183 0
-378 -111 0
-378 34 0
-378 149 0
-378 -169 0
378 183 111 -34 -149 169 0
-379 99 0
-379 102 0
-379 -2 0
-379 -79 0
-379 141 0
379 -99 -102 2 79 -141 0
-380 145 0
-380 -88 0
-380 46 0
-380 -152 0
-380 19 0
380 -145 88 -46 152 -19 0
376 377 378 379 380 0
-381 168 0
-381 -11 0
-381 76 0
-381 33 0
-381 163 0
381 -168 11 -76 -33 -163 0
-382 -13 0
-382 -175 0
-382 78 0
-382 14 0
-382 33 0
382 13 175 -78 -14 -33 0
-383 68 0
-383 -47 0
-383 88 0
-383 -106 0
-383 -132 0
383 -68 47 -88 106 132 0
-384 163 0
-384 23 0
-384 -154 0
-384 -43 0
-384 -18 0
384 -163 -23 154 43 18 0
-385 -140 0
-385 27 0
-385 7 0
-385 -14 0
-385 136 0
385 140 -27 -7 14 -136 0
381 382 383 384 385 0
-386 138 0
-386 -105 0
-386 137 0
-386 66 0
-386 -47 0
386 -138 105 -137 -66 47 0
-387 -150 0
-387 -65 0
-387 -62 0
-387 -83 0
-387 -40 0
387 150 65 62 83 40 0
-388 -125 0
-388 101 0
-388 -8 0
-388 -159 0
-388 160 0
388 125 -101 8 159 -160 0
-389 -41 0
-389 189 0
-389 25 0
-389 -53 0
-389 68 0
389 41 -189 -25 53 -68 0
-390 120 0
-390 140 0
-390 18 0
-390 95 0
-390 64 0
390 -120 -140 -18 -95 -64 0
386 387 388 389 390 0
-391 -164 0
-391 -61 0
-391 42 0
-391 117 0
-391 169 0
391 164 61 -42 -117 -169 0
-392 54 0
-392 77 0
-392 -105 0
-392 75 0
-392 -8 0
392 -54 -77 105 -75 8 0
-393 -163 0
-393 5 0
-393 51 0
-393 -86 0
-393 88 0
393 163 -5 -51 86 -88 0
-394 -17 0
-394 -125 0
-394 -84 0
-394 157 0
-394 22 0
394 17 125 84 -157 -22 0
-395 116 0
-395 1 0
-395 -64 0
-395 -23 0
-395 114 0
395 -116 -1 64 23 -114 0
391 392 393 394 395 0
-396 -107 0
-396 108 0
-396 -170 0
-396 -99 0
-396 -86 0
396 107 -108 170 99 86 0
-397 -26 0
-397 39 0
-397 -9 0
-397 89 0
-397 -106 0
397 26 -39 9 -89 106 0
-398 -179 0
-398 -129 0
-398 50 0
-398 29 0
-398 136 0
398 179 129 -50 -29 -136 0
-399 125 0
-399 187 0
-399 156 0
-399 -47 0
-399 99 0
399 -125 -187 -156 47 -99 0
-400 139 0
-400 15 0
-400 25 0
-400 -162 0
-400 169 0
400 -139 -15 -25 162 -169 0
396 397 398 399 400 0
-401 -116 0
-401 187 0
-401 138 0
-401 -175 0
-401 4 0
401 116 -187 -138 175 -4 0
-402 -1 0
-402 -7 0
-402 -122 0
-402 -65 0
-402 -83 0
402 1 7 122 65 83 0
-403 188 0
-403 67 0
-403 -115 0
-403 -79 0
-403 -33 0
403 -188 -67 115 79 33 0
-404 -120 0
-404 62 0
-404 -184 0
-404 81 0
-404 136 0
404 120 -62 184 -81 -136 0
-405 -23 0
-405 12 0
-405 -19 0
-405 -140 0
-405 92 0
405 23 -12 19 140 -92 0
401 402 403 404 405 0
-406 180 0
-406 153 0
-406 2 0
-406 54 0
-406 -189 0
406 -180 -153 -2 -54 189 0
-407 -17 0
-407 -41 0
-407 36 0
-407 -18 0
-407 172 0
407 17 41 -36 18 -172 0
-408 150 0
-408 74 0
-408 -142 0
-408 153 0
-408 90 0
408 -150 -74 142 -153 -90 0
-409 39 0
-409 -46 0
-409 145 0
-409 64 0
-409 -120 0
409 -39 46 -145 -64 120 0
-410 -105 0
-410 114 0
-410 181 0
-410 -159 0
-410 90 0
410 105 -114 -181 159 -90 0
406 407 408 409 410 0
-411 -56 0
-411 119 0
-411 -37 0
-411 -2 0
-411 110 0
411 56 -119 37 2 -110 0
-412 124 0
-412 -69 0
-412 -174 0
-412 28 0
-412 161 0
412 -124 69 174 -28 -161 0
-413 85 0
-413 145 0
-413 38 0
-413 161 0
-413 185 0
413 -85 -145 -38 -161 -185 0
-414 186 0
-414 48 0
-414 -123 0
-414 -50 0
-414 170 0
414 -186 -48 123 50 -170 0
-415 21 0
-415 -164 0
-415 47 0
-415 93 0
-415 -3 0
415 -21 164 -47 -93 3 0
411 412 413 414 415 0
-416 -155 0
-416 -16 0
-416 172 0
-416 -122 0
-416 -76 0
416 155 16 -172 122 76 0
-417 -147 0
-417 73 0
-417 150 0
-417 -125 0
-417 -181 0
417 147 -73 -150 125 181 0
-418 52 0
-418 81 0
-418 86 0
-418 -11 0
-418 185 0
418 -52 -81 -86 11 -185 0
-419 -71 0
-419 155 0
-419 -95 0
-419 -131 0
-419 -56 0
419 71 -155 95 131 56 0
-420 -175 0
-420 -55 0
-420 -138 0
-420 -121 0
-420 125 0
420 175 55 138 121 -125 0
416 417 418 419 420 0
-421 -40 0
-421 -79 0
-421 16 0
-421 -145 0
-421 28 0
421 40 79 -16 145 -28 0
-422 -65 0
-422 -167 0
-422 -14 0
-422 131 0
-422 -133 0
422 65 167 14 -131 133 0
-423 -66 0
-423 -180 0
-423 -13 0
-423 -30 0
-423 -115 0
423 66 180 13 30 115 0
-424 73 0
-424 166 0
-424 -95 0
-424 -110 0
-424 -4 0
424 -73 -166 95 110 4 0
-425 110 0
-425 -93 0
-425 86 0
-425 -162 0
-425 132 0
425 -110 93 -86 162 -132 0
421 422 423 424 425 0
-426 68 0
-426 10 0
-426 117 0
-426 -173 0
-426 -54 0
426 -68 -10 -117 173 54 0
-427 -124 0
-427 -140 0
-427 163 0
-427 -21 0
-427 -20 0
427 124 140 -163 21 20 0
-428 9 0
-428 -12 0
-428 46 0
-428 53 0
-428 132 0
428 -9 12 -46 -53 -132 0
-429 119 0
-429 172 0
-429 34 0
-429 -17 0
-429 125 0
429 -119 -172 -34 17 -125 0
-430 158 0
-430 -156 0
-430 -72 0
-430 178 0
-430 107 0
430 -158 156 72 -178 -107 0
426 427 428 429 430 0
